# Objective value = 3.0080558356878674e+02
x[0] 1
x[1] 0
x[2] 0
x[3] 1
x[4] 0
x[5] 0
x[6] 0
x[7] 1
x[8] 0
x[9] 1
x[10] 1
x[11] 0
x[12] 1
x[13] 1
x[14] 0
x[15] 1
x[16] 1
x[17] 1
x[18] 1
x[19] 0
x[20] 0
x[21] 1
x[22] 0
x[23] 1
x[24] 1
x[25] 0
x[26] 0
x[27] 0
x[28] 1
x[29] 0
x[30] 0
x[31] 0
x[32] 0
x[33] 0
x[34] 0
x[35] 1
x[36] 1
x[37] 0
x[38] 0
x[39] 1
x[40] 0
x[41] 0
x[42] 1
x[43] 0
x[44] 1
x[45] 1
x[46] 1
x[47] 1
x[48] 1
x[49] 0
x[50] 1
x[51] 1
x[52] 0
x[53] 0
x[54] 0
x[55] 1
x[56] 0
x[57] 0
x[58] 0
x[59] 0
x[60] 0
x[61] 0
x[62] 1
x[63] 1
x[64] 0
x[65] 1
x[66] 0
x[67] 1
x[68] 0
x[69] 1
x[70] 0
x[71] 1
x[72] 1
x[73] 0
x[74] 1
x[75] 0
x[76] 1
x[77] 0
x[78] 0
x[79] 0
x[80] 0
x[81] 0
x[82] 1
x[83] 1
x[84] 1
x[85] 1
x[86] 0
x[87] 0
x[88] 0
x[89] 1
x[90] 0
x[91] 0
x[92] 1
x[93] 1
x[94] 1
x[95] 1
x[96] 0
x[97] 0
x[98] 0
x[99] 1
x[100] 1
x[101] 0
x[102] 1
x[103] 0
x[104] 0
x[105] 0
x[106] 1
x[107] 1
x[108] 1
x[109] 1
x[110] 0
x[111] 0
x[112] 0
x[113] 0
x[114] 0
x[115] 1
x[116] 1
x[117] 1
x[118] 1
x[119] 0
x[120] 0
x[121] 0
x[122] 0
x[123] 1
x[124] 1
x[125] 1
x[126] 1
x[127] 0
x[128] 0
x[129] 1
x[130] 1
x[131] 0
x[132] 1
x[133] 0
x[134] 1
x[135] 0
x[136] 1
x[137] 0
x[138] 1
x[139] 1
x[140] 0
x[141] 1
x[142] 0
x[143] 1
x[144] 0
x[145] 1
x[146] 1
x[147] 1
x[148] 0
x[149] 1
x[150] 0
x[151] 1
x[152] 0
x[153] 1
x[154] 1
x[155] 1
x[156] 1
x[157] 0
x[158] 1
x[159] 1
x[160] 0
x[161] 1
x[162] 0
x[163] 0
x[164] 1
x[165] 1
x[166] 0
x[167] 0
x[168] 0
x[169] 1
x[170] 0
x[171] 0
x[172] 0
x[173] 0
x[174] 1
x[175] 0
x[176] 0
x[177] 1
x[178] 0
x[179] 1
x[180] 1
x[181] 0
x[182] 0
x[183] 0
x[184] 0
x[185] 0
x[186] 1
x[187] 0
x[188] 1
x[189] 1
x[190] 0
x[191] 1
x[192] 1
x[193] 0
x[194] 0
x[195] 1
x[196] 0
x[197] 0
x[198] 1
x[199] 1
x[200] 1
x[201] 0
x[202] 1
x[203] 0
x[204] 0
x[205] 1
x[206] 1
x[207] 1
x[208] 1
x[209] 0
x[210] 1
x[211] 0
x[212] 0
x[213] 1
x[214] 1
x[215] 0
x[216] 0
x[217] 0
x[218] 0
x[219] 0
x[220] 0
x[221] 1
x[222] 1
x[223] 0
x[224] 0
x[225] 0
x[226] 1
x[227] 0
x[228] 1
x[229] 0
x[230] 1
x[231] 1
x[232] 0
x[233] 0
x[234] 1
x[235] 0
x[236] 0
x[237] 1
x[238] 1
x[239] 1
x[240] 0
x[241] 0
x[242] 1
x[243] 1
x[244] 0
x[245] 1
x[246] 0
x[247] 0
x[248] 1
x[249] 1
x[250] 0
x[251] 1
x[252] 1
x[253] 0
x[254] 1
x[255] 1
x[256] 0
x[257] 0
x[258] 1
x[259] 0
x[260] 1
x[261] 0
x[262] 1
x[263] 1
x[264] 0
x[265] 0
x[266] 0
x[267] 0
x[268] 0
x[269] 0
x[270] 0
x[271] 1
x[272] 0
x[273] 1
x[274] 0
x[275] 0
x[276] 0
x[277] 1
x[278] 1
x[279] 1
x[280] 1
x[281] 1
x[282] 1
x[283] 0
x[284] 1
x[285] 1
x[286] 0
x[287] 1
x[288] 0
x[289] 0
x[290] 0
x[291] 1
x[292] 1
x[293] 1
x[294] 0
x[295] 1
x[296] 0
x[297] 0
x[298] 0
x[299] 0
x[300] 0
x[301] 1
x[302] 1
x[303] 1
x[304] 0
x[305] 0
x[306] 0
x[307] 0
x[308] 0
x[309] 1
x[310] 1
x[311] 0
x[312] 1
x[313] 0
x[314] 0
x[315] 0
x[316] 1
x[317] 0
x[318] 0
x[319] 1
x[320] 0
x[321] 1
x[322] 0
x[323] 0
x[324] 0
x[325] 0
x[326] 1
x[327] 1
x[328] 1
x[329] 0
x[330] 0
x[331] 0
x[332] 0
x[333] 1
x[334] 0
x[335] 1
x[336] 0
x[337] 0
x[338] 0
x[339] 0
x[340] 0
x[341] 1
x[342] 0
x[343] 1
x[344] 1
x[345] 0
x[346] 1
x[347] 1
x[348] 1
x[349] 1
x[350] 1
x[351] 1
x[352] 0
x[353] 1
x[354] 1
x[355] 0
x[356] 0
x[357] 1
x[358] 1
x[359] 0
x[360] 0
x[361] 1
x[362] 0
x[363] 0
x[364] 1
x[365] 1
x[366] 0
x[367] 0
x[368] 1
x[369] 0
x[370] 1
x[371] 0
x[372] 0
x[373] 0
x[374] 0
x[375] 0
x[376] 1
x[377] 0
x[378] 0
x[379] 1
x[380] 0
x[381] 1
x[382] 1
x[383] 1
x[384] 0
x[385] 0
x[386] 0
x[387] 0
x[388] 0
x[389] 0
x[390] 0
x[391] 1
x[392] 0
x[393] 0
x[394] 0
x[395] 0
x[396] 0
x[397] 0
x[398] 0
x[399] 0
x[400] 1
x[401] 0
x[402] 1
x[403] 1
x[404] 0
x[405] 1
x[406] 1
x[407] 0
x[408] 0
x[409] 0
x[410] 0
x[411] 0
x[412] 0
x[413] 0
x[414] 0
x[415] 1
x[416] 0
x[417] 0
x[418] 1
x[419] 0
x[420] 1
x[421] 0
x[422] 1
x[423] 0
x[424] 0
x[425] 0
x[426] 0
x[427] 1
x[428] 1
x[429] 1
x[430] 0
x[431] 1
x[432] 0
x[433] 0
x[434] 0
x[435] 1
x[436] 1
x[437] 1
x[438] 1
x[439] 1
x[440] 1
x[441] 1
x[442] 0
x[443] 0
x[444] 1
x[445] 1
x[446] 1
x[447] 1
x[448] 0
x[449] 1
x[450] 0
x[451] 0
x[452] 1
x[453] 0
x[454] 0
x[455] 1
x[456] 0
x[457] 1
x[458] 0
x[459] 0
x[460] 0
x[461] 0
x[462] 0
x[463] 0
x[464] 0
x[465] 0
x[466] 1
x[467] 0
x[468] 1
x[469] 1
x[470] 0
x[471] 1
x[472] 1
x[473] 0
x[474] 1
x[475] 1
x[476] 1
x[477] 1
x[478] 0
x[479] 1
x[480] 0
x[481] 1
x[482] 0
x[483] 1
x[484] 0
x[485] 0
x[486] 0
x[487] 1
x[488] 1
x[489] 0
x[490] 0
x[491] 1
x[492] 1
x[493] 1
x[494] 1
x[495] 1
x[496] 1
x[497] 0
x[498] 0
x[499] 1
x[500] 1
x[501] 0
x[502] 1
x[503] 1
x[504] 1
x[505] 1
x[506] 0
x[507] 1
x[508] 0
x[509] 1
x[510] 0
x[511] 1
x[512] 0
x[513] 0
x[514] 0
x[515] 0
x[516] 0
x[517] 0
x[518] 0
x[519] 0
x[520] 0
x[521] 1
x[522] 0
x[523] 1
x[524] 0
x[525] 1
x[526] 0
x[527] 1
x[528] 0
x[529] 0
x[530] 1
x[531] 1
x[532] 0
x[533] 0
x[534] 0
x[535] 0
x[536] 0
x[537] 0
x[538] 0
x[539] 0
x[540] 1
x[541] 0
x[542] 1
x[543] 0
x[544] 0
x[545] 0
x[546] 0
x[547] 1
x[548] 1
x[549] 0
x[550] 1
x[551] 0
x[552] 0
x[553] 0
x[554] 0
x[555] 0
x[556] 1
x[557] 0
x[558] 1
x[559] 1
x[560] 1
x[561] 0
x[562] 1
x[563] 0
x[564] 0
x[565] 1
x[566] 1
x[567] 1
x[568] 1
x[569] 0
x[570] 1
x[571] 0
x[572] 0
x[573] 0
x[574] 0
x[575] 1
x[576] 0
x[577] 1
x[578] 0
x[579] 0
x[580] 1
x[581] 0
x[582] 1
x[583] 1
x[584] 0
x[585] 0
x[586] 0
x[587] 1
x[588] 1
x[589] 0
x[590] 0
x[591] 1
x[592] 1
x[593] 0
x[594] 1
x[595] 0
x[596] 1
x[597] 1
x[598] 1
x[599] 0
x[600] 0
x[601] 1
x[602] 1
x[603] 1
x[604] 0
x[605] 0
x[606] 1
x[607] 0
x[608] 1
x[609] 1
x[610] 1
x[611] 1
x[612] 0
x[613] 0
x[614] 1
x[615] 1
x[616] 0
x[617] 1
x[618] 1
x[619] 1
x[620] 0
x[621] 0
x[622] 1
x[623] 1
x[624] 1
x[625] 0
x[626] 1
x[627] 0
x[628] 1
x[629] 0
x[630] 0
x[631] 1
x[632] 1
x[633] 1
x[634] 0
x[635] 0
x[636] 1
x[637] 0
x[638] 0
x[639] 0
x[640] 0
x[641] 0
x[642] 1
x[643] 1
x[644] 1
x[645] 0
x[646] 1
x[647] 0
x[648] 0
x[649] 1
x[650] 1
x[651] 0
x[652] 1
x[653] 1
x[654] 1
x[655] 1
x[656] 1
x[657] 1
x[658] 1
x[659] 1
x[660] 1
x[661] 0
x[662] 1
x[663] 1
x[664] 1
x[665] 0
x[666] 1
x[667] 0
x[668] 0
x[669] 0
x[670] 0
x[671] 1
x[672] 0
x[673] 1
x[674] 1
x[675] 1
x[676] 1
x[677] 0
x[678] 0
x[679] 1
x[680] 0
x[681] 1
x[682] 0
x[683] 0
x[684] 1
x[685] 1
x[686] 1
x[687] 0
x[688] 1
x[689] 0
x[690] 1
x[691] 0
x[692] 1
x[693] 0
x[694] 0
x[695] 1
x[696] 0
x[697] 1
x[698] 0
x[699] 1
x[700] 1
x[701] 1
x[702] 0
x[703] 1
x[704] 1
x[705] 0
x[706] 1
x[707] 1
x[708] 0
x[709] 1
x[710] 1
x[711] 1
x[712] 0
x[713] 1
x[714] 1
x[715] 1
x[716] 1
x[717] 1
x[718] 1
x[719] 0
x[720] 1
x[721] 1
x[722] 0
x[723] 0
x[724] 0
x[725] 1
x[726] 1
x[727] 1
x[728] 1
x[729] 0
x[730] 1
x[731] 1
x[732] 0
x[733] 1
x[734] 0
x[735] 1
x[736] 0
x[737] 1
x[738] 0
x[739] 0
x[740] 1
x[741] 0
x[742] 1
x[743] 0
x[744] 0
x[745] 0
x[746] 0
x[747] 0
x[748] 0
x[749] 0
x[750] 1
x[751] 1
x[752] 0
x[753] 1
x[754] 0
x[755] 0
x[756] 1
x[757] 1
x[758] 1
x[759] 0
x[760] 1
x[761] 0
x[762] 1
x[763] 1
x[764] 0
x[765] 1
x[766] 1
x[767] 1
x[768] 1
x[769] 1
x[770] 0
x[771] 0
x[772] 0
x[773] 1
x[774] 0
x[775] 1
x[776] 0
x[777] 0
x[778] 1
x[779] 1
x[780] 0
x[781] 0
x[782] 0
x[783] 1
x[784] 0
x[785] 1
x[786] 0
x[787] 0
x[788] 1
x[789] 0
x[790] 0
x[791] 1
x[792] 0
x[793] 0
x[794] 0
x[795] 1
x[796] 1
x[797] 1
x[798] 0
x[799] 0
x[800] 1
x[801] 0
x[802] 1
x[803] 0
x[804] 0
x[805] 0
x[806] 1
x[807] 1
x[808] 0
x[809] 0
x[810] 1
x[811] 0
x[812] 0
x[813] 0
x[814] 0
x[815] 1
x[816] 1
x[817] 1
x[818] 0
x[819] 0
x[820] 0
x[821] 0
x[822] 0
x[823] 0
x[824] 1
x[825] 1
x[826] 1
x[827] 1
x[828] 0
x[829] 0
x[830] 1
x[831] 0
x[832] 0
x[833] 0
x[834] 1
x[835] 1
x[836] 1
x[837] 0
x[838] 0
x[839] 0
x[840] 0
x[841] 1
x[842] 0
x[843] 0
x[844] 1
x[845] 1
x[846] 0
x[847] 0
x[848] 1
x[849] 0
x[850] 0
x[851] 1
x[852] 0
x[853] 1
x[854] 1
x[855] 0
x[856] 0
x[857] 1
x[858] 0
x[859] 0
x[860] 1
x[861] 1
x[862] 0
x[863] 0
x[864] 1
x[865] 1
x[866] 1
x[867] 0
x[868] 1
x[869] 0
x[870] 1
x[871] 1
x[872] 1
x[873] 1
x[874] 0
x[875] 0
x[876] 1
x[877] 0
x[878] 1
x[879] 1
x[880] 0
x[881] 0
x[882] 0
x[883] 1
x[884] 1
x[885] 0
x[886] 0
x[887] 1
x[888] 0
x[889] 1
x[890] 0
x[891] 1
x[892] 1
x[893] 1
x[894] 1
x[895] 1
x[896] 0
x[897] 1
x[898] 1
x[899] 0
x[900] 0
x[901] 1
x[902] 1
x[903] 0
x[904] 0
x[905] 1
x[906] 0
x[907] 0
x[908] 0
x[909] 0
x[910] 0
x[911] 1
x[912] 0
x[913] 1
x[914] 1
x[915] 1
x[916] 0
x[917] 0
x[918] 1
x[919] 0
x[920] 0
x[921] 0
x[922] 1
x[923] 1
x[924] 0
x[925] 1
x[926] 0
x[927] 1
x[928] 1
x[929] 0
x[930] 0
x[931] 1
x[932] 0
x[933] 0
x[934] 1
x[935] 1
x[936] 1
x[937] 1
x[938] 0
x[939] 1
x[940] 1
x[941] 1
x[942] 1
x[943] 1
x[944] 0
x[945] 0
x[946] 1
x[947] 0
x[948] 1
x[949] 1
x[950] 0
x[951] 0
x[952] 1
x[953] 0
x[954] 0
x[955] 0
x[956] 0
x[957] 1
x[958] 0
x[959] 1
x[960] 0
x[961] 0
x[962] 1
x[963] 0
x[964] 1
x[965] 1
x[966] 0
x[967] 0
x[968] 0
x[969] 1
x[970] 1
x[971] 0
x[972] 1
x[973] 1
x[974] 1
x[975] 0
x[976] 0
x[977] 0
x[978] 1
x[979] 1
x[980] 1
x[981] 0
x[982] 0
x[983] 0
x[984] 1
x[985] 0
x[986] 0
x[987] 0
x[988] 0
x[989] 0
x[990] 1
x[991] 0
x[992] 1
x[993] 1
x[994] 1
x[995] 1
x[996] 1
x[997] 1
x[998] 0
x[999] 1
